(declare-const a Real)
(declare-const b Real)
(declare-const c Real)
(assert (= (+ a b c) 3))
(assert (not (<= (+ (pow (* (+ (pow a 4) (pow c 4)) (+ (pow (+ (pow b 2) (pow c 2)) 2) (* 4 (pow a 2) (pow b 2)))) (/ 1 2)) (* -2 (pow a 4)) (* -2 (pow b 4)) (* -2 (pow c 4)) (* 2 a c (pow b 2))) 0)))
(check-sat)
(get-model)
(exit)